424 5
10 10 10 10 10 

0 0 0 0 0 0 5 2 14 26 38 50 
0 0 0 0 0 0 2 3 4 
2 0 1 0 0 0 3 7 5 242 
1 0 4 0 0 0 2 7 6 
7 0 2 0 0 0 1 6 
2 0 3 0 0 0 2 12 8 
8 0 2 0 0 0 2 12 8 
8 0 2 0 0 0 1 9 
10 0 4 0 0 0 1 10 
7 0 2 0 0 0 1 11 
9 0 3 0 0 0 1 13 
5 0 2 0 0 0 1 13 
0 0 0 0 0 0 1 62 
0 0 0 0 0 0 2 15 16 
10 0 1 0 0 0 2 20 18 
10 0 1 0 0 0 2 17 301 
3 0 4 0 0 0 1 18 
1 0 3 0 0 0 1 19 
2 0 2 0 0 0 2 24 21 
1 0 3 0 0 0 2 24 21 
2 0 4 0 0 0 1 22 
10 0 3 0 0 0 1 23 
5 0 1 0 0 0 1 25 
2 0 3 0 0 0 1 25 
0 0 0 0 0 0 1 62 
0 0 0 0 0 0 3 27 30 31 
4 1 0 0 0 0 1 28 
8 2 0 0 0 0 1 29 
4 2 0 0 0 0 2 36 32 
7 4 0 0 0 0 1 32 
9 1 0 0 0 0 2 36 34 
5 6 0 0 0 0 1 33 
1 2 0 0 0 0 2 34 374 
1 1 0 0 0 0 1 35 
10 2 0 0 0 0 1 37 
7 4 0 0 0 0 1 37 
0 0 0 0 0 0 1 62 
0 0 0 0 0 0 4 39 42 45 48 
2 1 0 0 0 0 1 40 
3 3 0 0 0 0 1 41 
5 5 0 0 0 0 1 43 
1 2 0 0 0 0 1 43 
8 3 0 0 0 0 1 44 
9 2 0 0 0 0 1 46 
10 2 0 0 0 0 1 46 
1 1 0 0 0 0 2 47 322 
7 5 0 0 0 0 1 49 
1 1 0 0 0 0 1 49 
0 0 0 0 0 0 1 62 
0 0 0 0 0 0 3 51 52 113 
3 0 0 0 1 0 2 55 53 
6 0 0 0 1 0 2 55 54 
9 0 0 0 4 0 1 54 
10 0 0 0 1 0 2 57 56 
9 0 0 0 6 0 2 57 56 
9 0 0 0 1 0 1 58 
7 0 0 0 2 0 1 58 
2 0 0 0 3 0 1 59 
4 0 0 0 4 0 1 60 
7 0 0 0 2 0 1 61 
0 0 0 0 0 0 1 62 
0 0 0 0 0 0 5 63 75 87 99 111 
0 0 0 0 0 0 2 64 69 
7 0 0 0 0 1 3 68 65 180 
7 0 0 0 0 3 1 66 
6 0 0 0 0 3 1 67 
4 0 0 0 0 3 1 70 
1 0 0 0 0 5 1 70 
4 0 0 0 0 2 1 71 
6 0 0 0 0 2 1 72 
3 0 0 0 0 2 1 72 
10 0 0 0 0 1 1 73 
5 0 0 0 0 3 1 74 
0 0 0 0 0 0 1 123 
0 0 0 0 0 0 2 76 79 
6 0 0 0 1 0 2 83 77 
10 0 0 0 4 0 1 78 
1 0 0 0 2 0 2 85 80 
1 0 0 0 3 0 2 83 80 
3 0 0 0 1 0 1 81 
8 0 0 0 4 0 1 82 
1 0 0 0 3 0 1 84 
9 0 0 0 2 0 1 84 
7 0 0 0 1 0 1 86 
7 0 0 0 4 0 1 86 
0 0 0 0 0 0 1 123 
0 0 0 0 0 0 1 88 
2 0 0 0 1 0 2 90 89 
1 0 0 0 1 0 2 93 91 
9 0 0 0 1 0 2 93 92 
7 0 0 0 3 0 1 92 
3 0 0 0 2 0 1 94 
5 0 0 0 2 0 1 94 
7 0 0 0 2 0 1 95 
7 0 0 0 7 0 2 97 96 
4 0 0 0 3 0 1 98 
6 0 0 0 3 0 1 98 
0 0 0 0 0 0 1 123 
0 0 0 0 0 0 2 100 101 
6 0 1 0 0 0 2 109 102 
9 0 3 0 0 0 2 109 102 
8 0 2 0 0 0 1 103 
5 0 3 0 0 0 2 108 104 
1 0 3 0 0 0 1 105 
10 0 5 0 0 0 1 106 
9 0 3 0 0 0 1 107 
10 0 2 0 0 0 1 110 
6 0 1 0 0 0 1 110 
8 0 2 0 0 0 1 110 
0 0 0 0 0 0 1 123 
0 0 0 0 0 0 2 112 115 
3 0 0 0 0 1 1 113 
3 0 0 0 0 3 1 114 
5 0 0 0 0 2 2 119 116 
2 0 0 0 0 4 3 121 119 117 
2 0 0 0 0 2 2 121 117 
2 0 0 0 0 2 1 118 
5 0 0 0 0 3 1 120 
9 0 0 0 0 3 1 120 
1 0 0 0 0 2 1 122 
9 0 0 0 0 3 1 122 
0 0 0 0 0 0 1 123 
0 0 0 0 0 0 5 124 156 188 200 232 
0 0 0 0 0 0 2 125 130 
7 1 1 0 0 1 1 126 
1 1 1 0 0 2 2 129 127 
4 2 3 0 0 3 1 128 
10 2 3 0 0 2 1 131 
9 5 1 0 0 4 1 131 
2 2 4 0 0 1 1 131 
10 2 2 0 0 3 2 134 132 
8 3 3 0 0 2 2 138 133 
8 3 1 0 0 1 2 145 135 
2 5 2 0 0 2 2 138 137 
10 3 3 0 0 2 1 136 
2 3 3 0 0 2 1 137 
3 3 2 0 0 3 2 144 139 
9 4 1 0 0 3 1 139 
2 1 3 0 0 3 1 140 
3 4 3 0 0 4 3 154 149 141 
6 1 2 0 0 2 1 142 
1 1 2 0 0 2 1 143 
6 3 4 0 0 2 1 146 
8 1 4 0 0 1 1 146 
5 1 1 0 0 4 2 154 149 
1 2 4 0 0 3 1 147 
4 2 4 0 0 2 1 148 
4 2 3 0 0 2 1 150 
1 3 2 0 0 4 1 150 
6 3 3 0 0 3 1 151 
10 4 2 0 0 3 1 152 
4 4 4 0 0 3 1 153 
5 2 2 0 0 2 1 155 
8 2 2 0 0 4 1 155 
0 0 0 0 0 0 1 424 
0 0 0 0 0 0 2 157 184 
6 0 1 0 1 1 1 158 
5 0 4 0 1 3 1 159 
4 0 1 0 3 2 1 160 
9 0 4 0 3 3 1 161 
7 0 3 0 3 3 2 175 162 
6 0 3 0 6 1 1 163 
9 0 2 0 2 2 1 164 
4 0 3 0 6 2 3 172 167 165 
2 0 3 0 1 2 2 169 166 
5 0 2 0 2 2 3 174 171 168 
3 0 2 0 6 1 2 174 173 
10 0 5 0 3 3 1 170 
5 0 1 0 2 2 1 170 
5 0 2 0 1 1 1 173 
6 0 2 0 4 2 1 173 
3 0 2 0 1 2 1 174 
9 0 1 0 1 5 1 176 
3 0 1 0 4 2 1 176 
10 0 3 0 1 1 1 176 
5 0 4 0 2 2 1 177 
5 0 1 0 1 5 2 186 178 
10 0 3 0 3 2 1 179 
7 0 4 0 1 2 1 180 
8 0 4 0 2 5 1 181 
10 0 3 0 3 3 1 182 
9 0 2 0 4 3 1 183 
8 0 3 0 1 2 1 185 
10 0 1 0 4 1 1 185 
9 0 3 0 2 5 1 187 
8 0 2 0 1 5 1 187 
0 0 0 0 0 0 1 424 
0 0 0 0 0 0 1 189 
4 0 0 0 0 1 2 191 190 
8 0 0 0 0 4 2 195 193 
2 0 0 0 0 3 1 192 
9 0 0 0 0 2 1 193 
3 0 0 0 0 4 1 194 
9 0 0 0 0 2 2 198 196 
2 0 0 0 0 3 2 198 196 
1 0 0 0 0 3 1 197 
4 0 0 0 0 2 1 199 
8 0 0 0 0 1 1 199 
0 0 0 0 0 0 5 264 286 298 320 342 
0 0 0 0 0 0 3 201 229 230 
2 1 1 0 1 0 1 202 
10 1 2 0 1 0 1 203 
9 2 2 0 3 0 3 228 227 204 
9 2 2 0 2 0 1 205 
8 3 1 0 3 0 2 226 206 
7 2 3 0 2 0 3 225 224 207 
7 1 1 0 4 0 1 208 
5 2 1 0 2 0 1 209 
10 3 4 0 2 0 1 210 
1 1 2 0 1 0 1 211 
10 2 2 0 5 0 1 212 
6 2 3 0 2 0 2 223 213 
4 3 4 0 2 0 1 214 
6 1 4 0 2 0 1 215 
4 4 3 0 2 0 1 216 
7 3 3 0 4 0 1 217 
1 2 5 0 2 0 1 218 
6 4 2 0 3 0 1 219 
1 3 4 0 4 0 1 220 
1 2 3 0 2 0 1 221 
4 2 3 0 4 0 1 222 
5 4 2 0 4 0 1 231 
9 4 1 0 3 0 1 231 
4 1 2 0 1 0 1 231 
8 1 2 0 3 0 1 231 
1 4 2 0 3 0 1 231 
1 5 4 0 2 0 1 231 
1 4 1 0 3 0 1 231 
1 2 4 0 1 0 1 231 
6 4 2 0 2 0 1 231 
0 0 0 0 0 0 1 424 
0 0 0 0 0 0 2 233 262 
3 1 0 0 1 1 1 234 
3 1 0 0 3 3 1 235 
9 2 0 0 3 3 1 236 
5 1 0 0 1 3 1 237 
3 3 0 0 2 1 2 261 238 
3 4 0 0 2 1 1 239 
8 3 0 0 3 1 1 240 
7 2 0 0 3 3 4 252 245 243 241 
2 1 0 0 2 2 2 249 242 
8 3 0 0 3 4 2 248 244 
10 2 0 0 3 5 2 248 247 
3 1 0 0 1 1 1 246 
1 3 0 0 1 5 1 246 
6 2 0 0 3 1 1 247 
10 1 0 0 1 1 1 250 
3 4 0 0 2 2 1 250 
9 2 0 0 2 6 1 250 
8 2 0 0 7 2 1 251 
3 2 0 0 4 3 2 260 253 
6 1 0 0 1 3 2 260 254 
10 4 0 0 4 3 1 254 
3 1 0 0 2 2 1 255 
4 5 0 0 2 2 1 256 
8 2 0 0 2 2 1 257 
3 5 0 0 3 3 1 258 
4 4 0 0 4 4 1 259 
5 3 0 0 2 3 1 263 
4 4 0 0 2 1 1 263 
3 3 0 0 2 2 1 263 
4 3 0 0 4 2 1 263 
0 0 0 0 0 0 1 424 
0 0 0 0 0 0 3 265 271 277 
8 0 1 0 0 1 3 284 281 266 
8 0 3 0 0 5 1 267 
4 0 3 0 0 3 1 268 
3 0 1 0 0 1 1 269 
6 0 2 0 0 1 1 270 
10 0 5 0 0 3 1 272 
8 0 2 0 0 1 1 272 
3 0 3 0 0 4 1 273 
2 0 3 0 0 2 1 274 
8 0 2 0 0 1 2 283 275 
8 0 4 0 0 2 1 276 
6 0 2 0 0 4 1 278 
1 0 4 0 0 2 2 281 280 
10 0 2 0 0 3 1 279 
8 0 2 0 0 2 1 280 
3 0 3 0 0 3 1 282 
4 0 2 0 0 4 1 282 
5 0 3 0 0 3 1 285 
5 0 2 0 0 2 1 285 
9 0 1 0 0 3 1 285 
0 0 0 0 0 0 1 424 
0 0 0 0 0 0 2 287 289 
1 0 0 0 0 1 1 288 
6 0 0 0 0 2 2 293 290 
6 0 0 0 0 3 2 293 290 
3 0 0 0 0 2 1 291 
2 0 0 0 0 2 1 292 
4 0 0 0 0 2 2 296 294 
9 0 0 0 0 2 2 296 295 
4 0 0 0 0 2 1 295 
3 0 0 0 0 4 1 297 
10 0 0 0 0 5 1 297 
0 0 0 0 0 0 5 364 376 388 400 412 
0 0 0 0 0 0 2 299 304 
4 1 0 0 1 0 2 318 300 
6 3 0 0 3 0 2 317 301 
8 3 0 0 2 0 2 306 302 
1 2 0 0 3 0 1 303 
3 4 0 0 2 0 1 305 
2 2 0 0 3 0 1 306 
7 1 0 0 3 0 1 307 
1 2 0 0 2 0 1 307 
2 1 0 0 1 0 1 308 
7 5 0 0 3 0 1 309 
1 1 0 0 3 0 1 310 
6 5 0 0 2 0 2 316 311 
6 3 0 0 2 0 1 312 
10 3 0 0 2 0 1 313 
5 5 0 0 1 0 1 314 
6 1 0 0 5 0 1 315 
9 2 0 0 4 0 1 319 
2 2 0 0 4 0 1 319 
6 2 0 0 1 0 1 319 
10 2 0 0 3 0 1 319 
0 0 0 0 0 0 1 424 
0 0 0 0 0 0 3 321 329 332 
6 1 1 0 0 0 1 322 
2 2 3 0 0 0 1 323 
1 3 2 0 0 0 1 324 
4 2 2 0 0 0 1 325 
5 2 3 0 0 0 2 337 326 
7 1 1 0 0 0 1 327 
5 2 2 0 0 0 1 328 
8 2 2 0 0 0 2 339 330 
2 4 5 0 0 0 2 340 333 
10 1 2 0 0 0 1 331 
1 3 1 0 0 0 1 333 
5 2 3 0 0 0 1 333 
7 3 4 0 0 0 1 334 
9 5 2 0 0 0 1 335 
5 3 2 0 0 0 1 336 
9 3 4 0 0 0 1 338 
9 4 4 0 0 0 1 338 
7 1 1 0 0 0 1 341 
6 2 3 0 0 0 1 341 
3 4 3 0 0 0 1 341 
0 0 0 0 0 0 1 424 
0 0 0 0 0 0 3 343 355 362 
2 1 0 0 0 1 2 361 344 
5 2 0 0 0 3 1 345 
10 3 0 0 0 4 1 346 
4 2 0 0 0 3 1 347 
7 3 0 0 0 2 1 348 
8 4 0 0 0 1 1 349 
8 2 0 0 0 3 2 360 350 
1 3 0 0 0 5 1 351 
10 2 0 0 0 2 1 352 
3 3 0 0 0 3 2 359 353 
6 2 0 0 0 2 1 354 
4 3 0 0 0 1 1 356 
1 4 0 0 0 2 1 356 
9 3 0 0 0 3 1 357 
6 3 0 0 0 5 1 358 
7 2 0 0 0 4 1 363 
10 2 0 0 0 2 1 363 
3 2 0 0 0 2 1 363 
10 3 0 0 0 1 1 363 
1 1 0 0 0 1 1 363 
0 0 0 0 0 0 1 424 
0 0 0 0 0 0 2 365 367 
3 0 0 1 0 0 1 366 
9 0 0 2 0 0 2 372 368 
1 0 0 2 0 0 2 372 369 
2 0 0 4 0 0 1 369 
5 0 0 5 0 0 1 370 
7 0 0 4 0 0 2 373 371 
4 0 0 1 0 0 1 374 
1 0 0 1 0 0 1 373 
10 0 0 3 0 0 1 375 
1 0 0 2 0 0 1 375 
0 0 0 0 0 0 1 424 
0 0 0 0 0 0 1 377 
10 0 1 0 0 0 2 379 378 
9 0 2 0 0 0 1 381 
8 0 2 0 0 0 1 380 
10 0 3 0 0 0 1 382 
1 0 2 0 0 0 1 382 
4 0 4 0 0 0 1 383 
10 0 2 0 0 0 1 384 
8 0 3 0 0 0 2 386 385 
5 0 2 0 0 0 1 387 
1 0 4 0 0 0 1 387 
0 0 0 0 0 0 1 424 
0 0 0 0 0 0 1 389 
8 0 1 0 0 0 2 391 390 
5 0 2 0 0 0 1 392 
9 0 5 0 0 0 3 398 397 394 
4 0 3 0 0 0 1 393 
9 0 3 0 0 0 2 397 394 
2 0 3 0 0 0 1 395 
5 0 3 0 0 0 1 396 
1 0 3 0 0 0 1 399 
2 0 1 0 0 0 1 399 
4 0 1 0 0 0 1 399 
0 0 0 0 0 0 1 424 
0 0 0 0 0 0 3 401 402 410 
7 1 0 0 0 0 2 408 403 
2 3 0 0 0 0 1 403 
9 2 0 0 0 0 1 404 
1 2 0 0 0 0 1 405 
1 2 0 0 0 0 1 406 
3 2 0 0 0 0 1 407 
6 2 0 0 0 0 1 409 
3 4 0 0 0 0 1 409 
8 2 0 0 0 0 1 411 
1 5 0 0 0 0 1 411 
0 0 0 0 0 0 1 424 
0 0 0 0 0 0 2 413 414 
9 0 0 0 0 1 2 418 415 
3 0 0 0 0 4 3 418 417 416 
8 0 0 0 0 4 2 417 416 
10 0 0 0 0 3 1 419 
3 0 0 0 0 2 1 419 
8 0 0 0 0 3 1 419 
4 0 0 0 0 3 1 420 
10 0 0 0 0 2 1 421 
8 0 0 0 0 1 1 422 
3 0 0 0 0 2 1 423 
0 0 0 0 0 0 1 424 
0 0 0 0 0 0 0 
